Geographic Exponential Decay
40 276 122 290 59 174 108 62 250 230 170 241 121 49 98 295 48 261 285 176 223 245 191 109 163 54 222 136 85 207 284 272 91 293 182 68 209 36 266 123 177
p edge 320 325
e 0 42 2.0
e 1 236 1.0
e 1 0 4.0
e 2 25 1.0
e 2 1 2.0
e 3 84 1.0
e 3 2 2.0
e 4 246 4.0
e 4 3 1.0
e 5 43 3.0
e 5 4 1.0
e 6 117 2.0
e 6 5 1.0
e 7 34 1.0
e 7 6 6.0
e 8 9 5.0
e 8 7 12.0
e 10 77 2.0
e 10 8 6.0
e 11 31 2.0
e 11 10 1.0
e 12 262 1.0
e 12 11 2.0
e 13 68 79.0
e 13 12 1.0
e 14 124 1.0
e 14 13 1.0
e 15 195 4.0
e 15 14 1.0
e 16 17 9.0
e 16 15 1.0
e 18 196 1.0
e 18 16 7.0
e 19 170 100.0
e 19 90 15.0
e 19 18 8.0
e 20 291 2.0
e 20 19 3.0
e 21 211 4.0
e 21 20 1.0
e 22 46 2.0
e 22 21 1.0
e 23 47 1.0
e 23 22 1.0
e 24 93 22.0
e 24 23 1.0
e 26 115 7.0
e 26 24 5.0
e 27 28 1.0
e 27 26 10.0
e 29 313 4.0
e 29 27 5.0
e 30 311 1.0
e 30 29 2.0
e 32 39 3.0
e 32 30 2.0
e 33 102 1.0
e 33 32 1.0
e 35 204 1.0
e 35 33 1.0
e 36 260 34.0
e 36 231 32.0
e 36 241 95.0
e 36 37 68.0
e 36 151 39.0
e 36 35 62.0
e 38 280 23.0
e 38 82 11.0
e 38 36 1.0
e 40 71 3.0
e 40 38 24.0
e 41 208 1.0
e 41 40 8.0
e 44 261 11.0
e 45 282 4.0
e 45 41 6.0
e 48 317 79.0
e 48 197 70.0
e 48 261 96.0
e 48 198 46.0
e 48 49 44.0
e 49 284 60.0
e 49 243 60.0
e 49 130 19.0
e 49 65 41.0
e 50 232 1.0
e 50 45 2.0
e 51 134 11.0
e 51 50 7.0
e 52 250 95.0
e 53 209 79.0
e 54 55 26.0
e 54 101 32.0
e 54 223 1.0
e 54 221 99.0
e 54 56 97.0
e 54 51 64.0
e 57 58 1.0
e 57 59 77.0
e 57 54 80.0
e 59 106 80.0
e 59 60 73.0
e 59 61 15.0
e 59 96 14.0
e 62 216 55.0
e 62 116 26.0
e 62 198 64.0
e 62 199 31.0
e 62 233 57.0
e 63 64 5.0
e 63 57 24.0
e 66 188 6.0
e 66 63 5.0
e 67 68 16.0
e 68 125 76.0
e 68 69 97.0
e 68 304 31.0
e 70 138 1.0
e 70 66 5.0
e 72 238 1.0
e 72 70 1.0
e 73 142 5.0
e 73 72 1.0
e 74 245 55.0
e 75 105 5.0
e 75 73 3.0
e 76 302 3.0
e 76 75 3.0
e 78 175 3.0
e 78 76 1.0
e 79 268 4.0
e 79 78 2.0
e 80 276 29.0
e 81 248 11.0
e 81 79 5.0
e 83 203 2.0
e 83 81 5.0
e 85 146 60.0
e 85 143 12.0
e 85 303 19.0
e 85 86 23.0
e 85 299 11.0
e 85 83 91.0
e 87 91 100.0
e 88 272 76.0
e 89 266 26.0
e 91 176 57.0
e 91 235 10.0
e 91 92 84.0
e 91 93 13.0
e 94 237 8.0
e 94 85 81.0
e 95 135 3.0
e 95 94 4.0
e 97 261 22.0
e 98 99 59.0
e 98 191 28.0
e 98 100 22.0
e 98 269 28.0
e 98 201 99.0
e 98 95 86.0
e 103 104 12.0
e 103 98 87.0
e 107 176 98.0
e 108 109 62.0
e 108 239 58.0
e 108 110 70.0
e 108 111 7.0
e 108 167 37.0
e 109 112 94.0
e 109 113 97.0
e 109 122 100.0
e 109 155 88.0
e 114 119 3.0
e 114 103 1.0
e 118 120 6.0
e 118 114 5.0
e 121 122 50.0
e 121 148 33.0
e 121 123 98.0
e 121 205 12.0
e 121 270 92.0
e 122 223 11.0
e 122 279 73.0
e 122 139 72.0
e 123 126 86.0
e 123 179 74.0
e 123 127 37.0
e 123 217 32.0
e 128 144 4.0
e 128 118 12.0
e 129 230 97.0
e 131 132 22.0
e 131 265 20.0
e 133 166 9.0
e 133 200 3.0
e 133 128 8.0
e 136 189 33.0
e 136 305 42.0
e 136 137 100.0
e 136 174 56.0
e 136 212 85.0
e 140 141 1.0
e 140 133 2.0
e 145 147 1.0
e 145 140 1.0
e 149 240 1.0
e 149 145 3.0
e 150 151 14.0
e 152 263 7.0
e 153 306 14.0
e 153 149 1.0
e 154 156 1.0
e 154 153 1.0
e 157 158 1.0
e 157 154 7.0
e 159 160 4.0
e 159 157 1.0
e 161 162 1.0
e 161 159 1.0
e 163 164 72.0
e 163 275 32.0
e 163 168 10.0
e 163 165 86.0
e 163 169 86.0
e 163 161 72.0
e 168 169 6.0
e 170 171 51.0
e 170 172 12.0
e 170 173 60.0
e 170 284 3.0
e 174 176 100.0
e 174 177 83.0
e 174 247 91.0
e 174 314 9.0
e 176 177 12.0
e 176 178 80.0
e 177 180 13.0
e 177 265 84.0
e 177 207 31.0
e 181 182 16.0
e 181 163 97.0
e 182 183 77.0
e 182 184 82.0
e 182 185 12.0
e 182 186 71.0
e 187 189 8.0
e 189 190 40.0
e 191 192 25.0
e 191 273 88.0
e 191 193 17.0
e 191 194 11.0
e 194 316 11.0
e 194 202 34.0
e 206 207 15.0
e 207 281 28.0
e 207 318 45.0
e 207 209 20.0
e 209 210 93.0
e 209 213 51.0
e 209 214 23.0
e 215 218 1.0
e 215 181 5.0
e 219 220 2.0
e 219 215 5.0
e 222 223 6.0
e 222 224 25.0
e 222 225 40.0
e 222 226 2.0
e 222 258 7.0
e 223 227 61.0
e 223 228 16.0
e 229 230 70.0
e 230 234 81.0
e 230 241 38.0
e 230 244 41.0
e 241 242 49.0
e 241 292 2.0
e 241 245 93.0
e 245 249 18.0
e 245 264 95.0
e 245 250 39.0
e 250 251 23.0
e 250 267 50.0
e 250 289 5.0
e 252 253 3.0
e 252 219 1.0
e 254 255 5.0
e 254 252 2.0
e 256 257 5.0
e 256 254 4.0
e 259 261 88.0
e 261 263 47.0
e 263 266 11.0
e 266 271 69.0
e 266 272 88.0
e 266 274 40.0
e 272 276 6.0
e 272 315 22.0
e 272 277 7.0
e 276 278 99.0
e 276 283 96.0
e 276 284 69.0
e 284 285 87.0
e 284 286 96.0
e 285 287 12.0
e 285 288 24.0
e 285 290 98.0
e 285 293 58.0
e 290 293 88.0
e 290 294 25.0
e 290 295 35.0
e 290 296 69.0
e 293 295 54.0
e 293 296 10.0
e 293 297 17.0
e 295 298 60.0
e 295 300 48.0
e 295 301 29.0
e 306 307 23.0
e 308 309 4.0
e 308 256 5.0
e 310 312 2.0
e 310 308 1.0
e 318 319 19.0
